
Gurobi 9.1.2 (win64, Python) logging started Tue Oct 19 14:52:34 2021

Academic license - for non-commercial use only - expires 2021-12-17
Using license file C:\Users\user\gurobi.lic
Set parameter LogFile to value gurobi.log
